;symbolic execution tree
(push)
(assert (le x0 java.lang.Object))
(check-sat)
(push)
(assert (le x1 java.lang.Object))
(check-sat)
(push)
(assert (le x2 java.lang.Object))
(check-sat)
(push)
(assert (le x3 java.lang.Object))
(check-sat)
(push)
(assert (le x4 java.lang.Object))
(check-sat)
(push)
(assert (le x5 java.lang.Object))
(check-sat)
(push)
(assert (le x6 java.lang.Object))
(check-sat)
(push)
(assert (le x7 java.lang.Object))
(check-sat)
(push)
(assert (le x2 java.io.PrintStream))
(check-sat)
(push)
(assert (= x6 java.lang.String))
(check-sat)
(pop)
(push)
(assert (not (= x6 java.lang.String)))
(check-sat)
(push)
(assert (le x5 java.io.BufferedReader))
(check-sat)
(pop)
(push)
(assert (not (le x5 java.io.BufferedReader)))
(check-sat)
(pop)
(push)
(assert (le x0 siena.ByteBuf))
(check-sat)
(pop)
(push)
(assert (not (le x0 siena.ByteBuf)))
(check-sat)
(pop)
(pop)
(push)
(assert (le x2 java.io.PrintStream))
(check-sat)
(pop)
(push)
(assert (not (le x2 java.io.PrintStream)))
(check-sat)
(pop)
(push)
(assert (= x7 java.lang.String))
(check-sat)
(pop)
(push)
(assert (not (= x7 java.lang.String)))
(check-sat)
(push)
(assert (= x5 java.lang.String))
(check-sat)
(pop)
(push)
(assert (not (= x5 java.lang.String)))
(check-sat)
(pop)
(pop)
(push)
(assert (= x3 java.lang.StringBuilder))
(check-sat)
(pop)
(push)
(assert (not (= x3 java.lang.StringBuilder)))
(check-sat)
(pop)
(pop)
(push)
(assert (not (le x2 java.io.PrintStream)))
(check-sat)
(push)
(assert (le x5 siena.Tokenizer))
(check-sat)
(push)
(assert (le x0 java.io.PrintStream))
(check-sat)
(pop)
(push)
(assert (not (le x0 java.io.PrintStream)))
(check-sat)
(pop)
(push)
(assert (= x3 java.lang.String))
(check-sat)
(push)
(assert (le x1 siena.AttributeValue))
(check-sat)
(push)
(assert (= x3 java.lang.String))
(check-sat)
(pop)
(push)
(assert (not (= x3 java.lang.String)))
(check-sat)
(pop)
(pop)
(push)
(assert (not (le x1 siena.AttributeValue)))
(check-sat)
(pop)
(push)
(assert (= x4 java.lang.StringBuilder))
(check-sat)
(pop)
(push)
(assert (not (= x4 java.lang.StringBuilder)))
(check-sat)
(pop)
(push)
(assert (le x4 java.io.BufferedReader))
(check-sat)
(pop)
(push)
(assert (not (le x4 java.io.BufferedReader)))
(check-sat)
(push)
(assert (= x6 java.lang.String))
(check-sat)
(pop)
(push)
(assert (not (= x6 java.lang.String)))
(check-sat)
(pop)
(pop)
(pop)
(push)
(assert (not (= x3 java.lang.String)))
(check-sat)
(push)
(assert (= x0 java.lang.String))
(check-sat)
(pop)
(push)
(assert (not (= x0 java.lang.String)))
(check-sat)
(push)
(assert (= x0 java.lang.String))
(check-sat)
(pop)
(push)
(assert (not (= x0 java.lang.String)))
(check-sat)
(pop)
(pop)
(pop)
(push)
(assert (= x4 java.lang.StringBuilder))
(check-sat)
(push)
(assert (= x3 java.lang.Integer))
(check-sat)
(push)
(assert (le x0 java.util.Set))
(check-sat)
(pop)
(push)
(assert (not (le x0 java.util.Set)))
(check-sat)
(pop)
(pop)
(push)
(assert (not (= x3 java.lang.Integer)))
(check-sat)
(pop)
(push)
(assert (= x0 java.lang.String))
(check-sat)
(push)
(assert (le x6 siena.HierarchicalDispatcher))
(check-sat)
(pop)
(push)
(assert (not (le x6 siena.HierarchicalDispatcher)))
(check-sat)
(pop)
(pop)
(push)
(assert (not (= x0 java.lang.String)))
(check-sat)
(pop)
(push)
(assert (le x2 java.io.PrintStream))
(check-sat)
(pop)
(push)
(assert (not (le x2 java.io.PrintStream)))
(check-sat)
(push)
(assert (= x7 java.lang.StringBuilder))
(check-sat)
(pop)
(push)
(assert (not (= x7 java.lang.StringBuilder)))
(check-sat)
(pop)
(pop)
(push)
(assert (le x7 siena.Event))
(check-sat)
(pop)
(push)
(assert (not (le x7 siena.Event)))
(check-sat)
(pop)
(push)
(assert (= x6 java.lang.Byte))
(check-sat)
(pop)
(push)
(assert (not (= x6 java.lang.Byte)))
(check-sat)
(pop)
(push)
(assert (le x0 siena.Event))
(check-sat)
(pop)
(push)
(assert (not (le x0 siena.Event)))
(check-sat)
(pop)
(push)
(assert (le x5 siena.Tokenizer))
(check-sat)
(pop)
(push)
(assert (not (le x5 siena.Tokenizer)))
(check-sat)
(pop)
(push)
(assert (= x0 java.lang.String))
(check-sat)
(push)
(assert (= x0 java.lang.String))
(check-sat)
(pop)
(push)
(assert (not (= x0 java.lang.String)))
(check-sat)
(pop)
(pop)
(push)
(assert (not (= x0 java.lang.String)))
(check-sat)
(pop)
(push)
(assert (= x1 java.lang.String))
(check-sat)
(pop)
(push)
(assert (not (= x1 java.lang.String)))
(check-sat)
(pop)
(push)
(assert (= x7 java.lang.String))
(check-sat)
(push)
(assert (le x5 siena.Tokenizer))
(check-sat)
(pop)
(push)
(assert (not (le x5 siena.Tokenizer)))
(check-sat)
(pop)
(pop)
(push)
(assert (not (= x7 java.lang.String)))
(check-sat)
(pop)
(push)
(assert (le x2 java.io.PrintStream))
(check-sat)
(pop)
(push)
(assert (not (le x2 java.io.PrintStream)))
(check-sat)
(pop)
(push)
(assert (= x1 java.lang.StringBuilder))
(check-sat)
(pop)
(push)
(assert (not (= x1 java.lang.StringBuilder)))
(check-sat)
(pop)
(push)
(assert (le x0 siena.Tokenizer))
(check-sat)
(pop)
(push)
(assert (not (le x0 siena.Tokenizer)))
(check-sat)
(pop)
(pop)
(push)
(assert (not (= x4 java.lang.StringBuilder)))
(check-sat)
(push)
(assert (le x3 siena.Filter))
(check-sat)
(pop)
(push)
(assert (not (le x3 siena.Filter)))
(check-sat)
(pop)
(pop)
(pop)
(push)
(assert (not (le x5 siena.Tokenizer)))
(check-sat)
(push)
(assert (= x1 java.lang.String))
(check-sat)
(pop)
(push)
(assert (not (= x1 java.lang.String)))
(check-sat)
(push)
(assert (le x2 java.io.PrintStream))
(check-sat)
(pop)
(push)
(assert (not (le x2 java.io.PrintStream)))
(check-sat)
(pop)
(pop)
(push)
(assert (= x0 java.lang.String))
(check-sat)
(pop)
(push)
(assert (not (= x0 java.lang.String)))
(check-sat)
(pop)
(push)
(assert (= x0 java.lang.String))
(check-sat)
(pop)
(push)
(assert (not (= x0 java.lang.String)))
(check-sat)
(push)
(assert (le x1 siena.Notifiable))
(check-sat)
(pop)
(push)
(assert (not (le x1 siena.Notifiable)))
(check-sat)
(pop)
(pop)
(push)
(assert (le x5 siena.Tokenizer))
(check-sat)
(pop)
(push)
(assert (not (le x5 siena.Tokenizer)))
(check-sat)
(pop)
(pop)
(push)
(assert (le x2 java.io.PrintStream))
(check-sat)
(pop)
(push)
(assert (not (le x2 java.io.PrintStream)))
(check-sat)
(push)
(assert (le x6 siena.HierarchicalDispatcher))
(check-sat)
(push)
(assert (le x0 siena.Tokenizer))
(check-sat)
(pop)
(push)
(assert (not (le x0 siena.Tokenizer)))
(check-sat)
(pop)
(push)
(assert (le x4 siena.Filter))
(check-sat)
(pop)
(push)
(assert (not (le x4 siena.Filter)))
(check-sat)
(pop)
(pop)
(push)
(assert (not (le x6 siena.HierarchicalDispatcher)))
(check-sat)
(push)
(assert (le x3 siena.AttributeValue))
(check-sat)
(pop)
(push)
(assert (not (le x3 siena.AttributeValue)))
(check-sat)
(pop)
(pop)
(pop)
(push)
(assert (le x1 java.net.InetAddress))
(check-sat)
(pop)
(push)
(assert (not (le x1 java.net.InetAddress)))
(check-sat)
(push)
(assert (le x0 siena.AttributeValue))
(check-sat)
(push)
(assert (le x7 siena.Event))
(check-sat)
(pop)
(push)
(assert (not (le x7 siena.Event)))
(check-sat)
(pop)
(pop)
(push)
(assert (not (le x0 siena.AttributeValue)))
(check-sat)
(pop)
(push)
(assert (le x3 siena.ByteBuf))
(check-sat)
(push)
(assert (= x7 java.lang.String))
(check-sat)
(pop)
(push)
(assert (not (= x7 java.lang.String)))
(check-sat)
(pop)
(pop)
(push)
(assert (not (le x3 siena.ByteBuf)))
(check-sat)
(push)
(assert (= x7 java.lang.String))
(check-sat)
(pop)
(push)
(assert (not (= x7 java.lang.String)))
(check-sat)
(pop)
(push)
(assert (le x3 siena.ByteBuf))
(check-sat)
(pop)
(push)
(assert (not (le x3 siena.ByteBuf)))
(check-sat)
(pop)
(push)
(assert (= x4 java.lang.String))
(check-sat)
(pop)
(push)
(assert (not (= x4 java.lang.String)))
(check-sat)
(push)
(assert (= x6 java.lang.Integer))
(check-sat)
(pop)
(push)
(assert (not (= x6 java.lang.Integer)))
(check-sat)
(pop)
(pop)
(pop)
(push)
(assert (= x7 java.lang.String))
(check-sat)
(push)
(assert (le x3 siena.AttributeValue))
(check-sat)
(pop)
(push)
(assert (not (le x3 siena.AttributeValue)))
(check-sat)
(pop)
(pop)
(push)
(assert (not (= x7 java.lang.String)))
(check-sat)
(push)
(assert (le x2 java.io.PrintStream))
(check-sat)
(pop)
(push)
(assert (not (le x2 java.io.PrintStream)))
(check-sat)
(pop)
(pop)
(push)
(assert (le x7 java.net.InetAddress))
(check-sat)
(pop)
(push)
(assert (not (le x7 java.net.InetAddress)))
(check-sat)
(pop)
(push)
(assert (le x2 java.io.PrintStream))
(check-sat)
(pop)
(push)
(assert (not (le x2 java.io.PrintStream)))
(check-sat)
(pop)
(push)
(assert (le x3 siena.ByteBuf))
(check-sat)
(pop)
(push)
(assert (not (le x3 siena.ByteBuf)))
(check-sat)
(push)
(assert (le x7 siena.HierarchicalDispatcher))
(check-sat)
(push)
(assert (= x4 java.lang.String))
(check-sat)
(pop)
(push)
(assert (not (= x4 java.lang.String)))
(check-sat)
(pop)
(pop)
(push)
(assert (not (le x7 siena.HierarchicalDispatcher)))
(check-sat)
(pop)
(push)
(assert (= x5 java.lang.StringBuilder))
(check-sat)
(pop)
(push)
(assert (not (= x5 java.lang.StringBuilder)))
(check-sat)
(pop)
(push)
(assert (le x3 siena.ByteBuf))
(check-sat)
(pop)
(push)
(assert (not (le x3 siena.ByteBuf)))
(check-sat)
(pop)
(pop)
(push)
(assert (le x0 siena.Tokenizer))
(check-sat)
(pop)
(push)
(assert (not (le x0 siena.Tokenizer)))
(check-sat)
(push)
(assert (= x5 java.lang.String))
(check-sat)
(pop)
(push)
(assert (not (= x5 java.lang.String)))
(check-sat)
(pop)
(pop)
(push)
(assert (le x6 siena.HierarchicalDispatcher))
(check-sat)
(pop)
(push)
(assert (not (le x6 siena.HierarchicalDispatcher)))
(check-sat)
(pop)
(pop)
(pop)
